# Solution for model count
# Objective value = 9
z#1 0
z#2 0
z#3 1
z#4 1
z#5 0
z#6 1
z#7 1
z#8 0
z#9 0
z#10 0
z#11 0
z#12 0
z#13 0
z#14 1
z#15 1
z#16 1
z#17 0
z#18 0
z#19 1
z#20 0
z#21 0
z#22 0
z#23 1
z#24 0
x#24 0
x#23 2293
x#22 0
x#21 0
x#20 0
x#19 205
x#18 0
x#17 0
x#16 212
x#15 858
x#14 681
x#13 0
x#12 0
x#11 0
x#10 0
x#9 0
x#8 0
x#7 2843
x#6 321
x#5 0
x#4 1350
x#3 1237
x#2 0
x#1 0
